input:
6 2
2 3 5 2 2 2
output:
9
0 1 0 1 0 1
# != OPT, OPT = 8 (5+3 = 2 + 2 + 2 + 2)
/*********************/

input:
10 3
1 2 3 4 5 6 7 8 9 10
output:
19
2 2 1 0 0 1 2 2 1 0
# = OPT > 18.33 >= 19
/*********************/

input:
4 2
8 2 7 3
output:
10
0 0 1 1
# = OPT
/*********************/
